25972.09,50.29,55.38
31290.0,41.74,45.97
23889.9,54.67,60.21
26014.89,50.21,55.29
25550.83,51.12,56.3
26299.83,49.66,54.69
27479.1,47.53,52.35
28128.08,46.44,51.14
24748.0,52.78,58.12
26621.47,49.06,54.03
28837.28,45.3,49.88
27331.37,47.79,52.63
30081.54,43.42,47.82
22581.76,57.84,63.7
27855.14,46.89,51.64
25267.41,51.69,56.93
24810.63,52.65,57.98
23740.73,55.02,60.59
24816.72,52.63,57.96
26276.48,49.71,54.74
